750
750 750
1 525 282
2 523 161
3 523 759
4 522 139
5 522 967
6 522 477
7 522 793
8 522 607
9 521 141
10 521 873
11 521 999
12 520 310
13 520 226
14 520 74
15 519 119
16 518 267
17 518 744
18 518 771
19 517 483
20 517 261
21 515 133
22 513 509
23 513 988
24 513 383
25 512 146
26 512 98
27 512 635
28 512 829
29 511 700
30 511 902
31 511 123
32 511 408
33 511 393
34 511 248
35 510 340
36 509 277
37 509 929
38 509 67
39 509 650
40 508 300
41 508 850
42 508 670
43 506 585
44 506 919
45 506 483
46 505 939
47 505 113
48 504 751
49 504 893
50 504 23
51 503 576
52 503 652
53 503 226
54 502 218
55 501 793
56 501 647
57 501 553
58 500 548
59 500 592
60 499 790
61 498 185
62 498 594
63 497 935
64 497 929
65 495 391
66 495 576
67 495 703
68 495 612
69 493 605
70 493 266
71 493 441
72 493 998
73 491 435
74 491 114
75 491 993
76 490 889
77 490 133
78 489 312
79 488 862
80 488 871
81 488 606
82 487 876
83 487 94
84 487 453
85 486 459
86 486 125
87 486 996
88 486 241
89 486 484
90 485 239
91 485 382
92 484 459
93 484 783
94 482 55
95 482 312
96 482 841
97 482 227
98 481 184
99 481 994
100 481 978
101 481 982
102 479 16
103 479 6
104 478 932
105 478 877
106 477 48
107 476 376
108 476 325
109 475 775
110 475 612
111 474 882
112 473 0
113 472 367
114 472 352
115 470 67
116 470 832
117 469 870
118 468 882
119 468 413
120 467 527
121 467 584
122 467 794
123 466 849
124 466 414
125 465 717
126 465 753
127 464 787
128 464 369
129 464 907
130 463 693
131 463 843
132 463 327
133 463 797
134 463 726
135 461 992
136 461 892
137 460 90
138 460 194
139 459 230
140 458 736
141 457 28
142 457 271
143 457 501
144 456 317
145 455 65
146 454 398
147 454 571
148 453 754
149 452 658
150 452 636
151 450 791
152 450 829
153 449 893
154 448 274
155 448 494
156 448 139
157 448 73
158 448 517
159 448 947
160 447 458
161 447 816
162 447 736
163 447 174
164 446 448
165 445 730
166 445 921
167 443 809
168 443 970
169 442 26
170 441 727
171 441 995
172 441 251
173 441 159
174 440 445
175 440 797
176 440 458
177 439 458
178 439 623
179 439 608
180 439 982
181 439 470
182 439 970
183 439 701
184 439 898
185 437 543
186 437 521
187 436 357
188 435 256
189 434 456
190 434 680
191 434 124
192 434 184
193 433 530
194 432 441
195 431 978
196 430 460
197 429 698
198 429 284
199 429 818
200 429 827
201 429 804
202 428 490
203 427 899
204 427 430
205 427 814
206 426 907
207 426 293
208 426 619
209 426 135
210 426 270
211 426 91
212 426 446
213 424 495
214 424 888
215 421 457
216 421 561
217 421 548
218 420 281
219 419 535
220 417 800
221 417 949
222 417 283
223 416 615
224 416 676
225 416 586
226 415 656
227 415 589
228 414 213
229 414 765
230 412 184
231 412 262
232 412 494
233 411 895
234 411 453
235 411 596
236 409 65
237 408 535
238 407 510
239 406 904
240 404 719
241 403 917
242 402 1000
243 401 89
244 401 221
245 400 502
246 399 498
247 399 982
248 399 525
249 398 614
250 398 197
251 398 40
252 397 344
253 397 803
254 397 529
255 397 409
256 397 72
257 396 968
258 395 205
259 395 471
260 394 981
261 393 687
262 393 949
263 393 344
264 393 746
265 392 115
266 391 401
267 391 864
268 391 195
269 390 805
270 389 682
271 389 830
272 388 628
273 387 391
274 387 519
275 387 693
276 387 980
277 387 397
278 385 803
279 385 526
280 385 662
281 385 118
282 385 954
283 384 383
284 383 278
285 383 152
286 383 425
287 382 762
288 381 219
289 381 440
290 381 109
291 381 10
292 380 990
293 379 898
294 378 503
295 378 90
296 378 835
297 378 742
298 378 944
299 378 217
300 377 489
301 377 496
302 376 439
303 376 584
304 375 191
305 375 858
306 375 818
307 374 639
308 374 997
309 374 635
310 374 958
311 374 992
312 374 274
313 374 389
314 373 1000
315 373 741
316 373 923
317 373 618
318 372 808
319 371 788
320 371 9
321 370 923
322 370 813
323 369 899
324 369 950
325 369 263
326 368 668
327 368 715
328 367 522
329 367 763
330 366 892
331 366 670
332 364 259
333 363 678
334 361 100
335 361 740
336 361 3
337 359 300
338 358 444
339 358 827
340 357 478
341 357 545
342 356 479
343 356 932
344 356 818
345 355 553
346 355 687
347 355 633
348 354 448
349 354 717
350 353 879
351 352 45
352 351 143
353 350 295
354 350 523
355 349 875
356 349 454
357 347 821
358 347 841
359 347 67
360 346 830
361 346 396
362 345 859
363 345 660
364 344 568
365 344 759
366 341 865
367 341 736
368 341 108
369 341 139
370 341 809
371 340 36
372 340 413
373 339 888
374 339 862
375 338 50
376 337 954
377 336 551
378 336 149
379 336 759
380 334 417
381 334 765
382 333 67
383 333 817
384 333 705
385 333 820
386 333 353
387 332 269
388 332 31
389 330 747
390 330 445
391 330 257
392 330 486
393 329 753
394 328 688
395 328 957
396 328 347
397 328 311
398 327 535
399 326 363
400 326 617
401 324 172
402 324 97
403 323 512
404 323 67
405 323 283
406 322 354
407 322 528
408 322 232
409 322 468
410 320 968
411 320 707
412 320 563
413 319 197
414 318 37
415 318 302
416 317 893
417 317 566
418 316 183
419 316 46
420 316 294
421 316 397
422 316 589
423 315 718
424 314 775
425 314 399
426 314 633
427 314 306
428 313 202
429 311 671
430 311 957
431 311 411
432 311 876
433 310 290
434 309 103
435 308 568
436 308 369
437 307 458
438 305 2
439 305 158
440 304 863
441 304 160
442 304 737
443 304 73
444 303 942
445 303 440
446 303 837
447 303 772
448 301 170
449 301 341
450 300 310
451 300 24
452 300 910
453 298 124
454 298 452
455 298 477
456 298 289
457 298 841
458 297 16
459 296 796
460 296 650
461 294 694
462 294 560
463 293 93
464 293 86
465 293 33
466 293 834
467 292 589
468 292 720
469 291 200
470 291 363
471 289 188
472 289 849
473 289 185
474 289 120
475 288 559
476 288 915
477 288 397
478 287 485
479 287 176
480 286 838
481 285 343
482 285 664
483 284 8
484 283 14
485 282 795
486 282 277
487 282 299
488 282 742
489 282 151
490 282 10
491 282 42
492 281 107
493 281 30
494 281 107
495 280 694
496 279 555
497 279 527
498 279 485
499 278 565
500 278 778
501 278 698
502 278 970
503 277 315
504 277 32
505 277 929
506 276 166
507 276 646
508 275 83
509 274 768
510 273 837
511 273 648
512 272 209
513 272 921
514 272 515
515 272 247
516 272 825
517 270 672
518 270 365
519 269 886
520 269 571
521 269 668
522 268 691
523 268 484
524 268 969
525 268 262
526 267 741
527 267 590
528 266 290
529 266 173
530 265 708
531 265 839
532 265 130
533 264 332
534 264 210
535 263 421
536 263 198
537 262 966
538 262 876
539 262 159
540 261 287
541 260 38
542 260 329
543 259 882
544 258 270
545 256 981
546 256 1
547 255 263
548 255 201
549 254 665
550 254 675
551 253 635
552 253 29
553 251 668
554 251 136
555 251 149
556 251 84
557 251 62
558 250 988
559 250 681
560 250 713
561 250 543
562 249 254
563 249 933
564 249 307
565 249 470
566 249 305
567 249 541
568 249 896
569 248 904
570 248 354
571 248 721
572 248 931
573 246 501
574 246 610
575 246 311
576 245 413
577 245 46
578 245 909
579 244 875
580 244 905
581 244 396
582 244 529
583 243 139
584 243 740
585 242 331
586 241 514
587 241 729
588 239 745
589 239 907
590 237 927
591 237 743
592 237 943
593 237 270
594 236 929
595 236 599
596 236 593
597 235 183
598 235 142
599 235 660
600 235 791
601 232 157
602 232 459
603 232 944
604 231 612
605 231 894
606 230 198
607 229 19
608 229 815
609 228 929
610 228 477
611 227 921
612 226 295
613 226 167
614 225 13
615 225 50
616 225 690
617 224 683
618 224 136
619 223 210
620 223 233
621 222 998
622 222 877
623 222 963
624 221 933
625 219 726
626 218 867
627 218 970
628 217 421
629 216 128
630 215 446
631 214 382
632 214 907
633 214 768
634 213 39
635 211 29
636 210 302
637 209 355
638 208 723
639 208 705
640 208 903
641 207 778
642 206 233
643 205 905
644 205 781
645 205 181
646 205 281
647 204 601
648 204 989
649 203 881
650 203 417
651 202 795
652 201 246
653 201 838
654 200 122
655 199 674
656 198 301
657 197 145
658 197 289
659 197 394
660 196 200
661 196 448
662 194 29
663 194 470
664 193 626
665 193 301
666 192 100
667 191 399
668 191 364
669 190 788
670 189 99
671 188 525
672 188 82
673 187 636
674 187 747
675 187 878
676 186 800
677 184 25
678 184 641
679 184 340
680 184 196
681 183 148
682 183 783
683 183 677
684 182 396
685 182 898
686 181 41
687 180 766
688 180 915
689 180 199
690 180 22
691 179 926
692 178 706
693 178 425
694 176 264
695 176 734
696 176 133
697 176 13
698 176 419
699 176 417
700 176 583
701 176 202
702 175 329
703 174 525
704 174 25
705 174 863
706 173 228
707 172 91
708 172 514
709 172 990
710 171 612
711 171 694
712 171 48
713 169 885
714 169 581
715 169 478
716 168 367
717 166 772
718 166 998
719 166 415
720 166 387
721 165 636
722 165 690
723 164 458
724 163 294
725 163 966
726 163 843
727 163 787
728 162 209
729 162 349
730 161 269
731 161 205
732 160 46
733 160 341
734 160 113
735 159 552
736 159 481
737 158 502
738 158 70
739 157 65
740 156 200
741 156 138
742 155 402
743 154 865
744 153 25
745 153 49
746 153 989
747 152 204
748 151 287
749 151 10
750 150 994
